data/solutions/planning/wellformed/moderate/highest_rank_objective/wellformed_moderate_instance9_cplex.sol
Elapsed time: 0.68
Nodes explored: 1919
Nodes left: -
Relative gap: -
Upper bound: 7543.0
Lower bound: -
C[0]=1078.0
C[1]=1077.0
C[2]=1077.0
y[0]=1
y[1]=1
y[2]=2
y[3]=1
y[4]=0
y[5]=0
y[6]=1
y[7]=2
y[8]=2
y[9]=0
y[10]=0
y[11]=0
y[12]=0
y[13]=0
y[14]=0
y[15]=0
y[16]=2
y[17]=2
y[18]=0
y[19]=0
y[20]=1
y[21]=2
y[22]=1
y[23]=0
y[24]=0
y[25]=1
y[26]=0
y[27]=0
y[28]=2
y[29]=2
